(declare-fun var0 () String)
(assert (RegexIn var0 (RegexConcat (RegexUnion (RegexStar (Str2Reg "}}")) (RegexUnion (Str2Reg "~~~") (Str2Reg "0"))) (RegexConcat (RegexPlus (RegexPlus (Str2Reg "||"))) (RegexConcat (RegexUnion (RegexStar (Str2Reg "`")) (RegexStar (Str2Reg "{{{"))) (RegexConcat (RegexPlus (RegexStar (Str2Reg "_"))) (RegexConcat (RegexPlus (RegexStar (Str2Reg "^"))) (RegexConcat (RegexPlus (RegexStar (Str2Reg "]]]"))) (RegexConcat (RegexPlus (RegexUnion (Str2Reg "[[") (Str2Reg "\\\\"))) (RegexConcat (RegexStar (RegexStar (Str2Reg "@@"))) (RegexConcat (RegexUnion (RegexStar (Str2Reg ">>")) (RegexPlus (Str2Reg "???"))) (RegexConcat (RegexPlus (RegexPlus (Str2Reg "=="))) (RegexConcat (RegexStar (RegexUnion (Str2Reg ";;;") (Str2Reg "<<"))) (RegexConcat (RegexPlus (RegexUnion (Str2Reg "///") (Str2Reg ":"))) (RegexConcat (RegexUnion (RegexStar (Str2Reg ",")) (RegexUnion (Str2Reg "---") (Str2Reg "."))) (RegexConcat (RegexUnion (RegexPlus (Str2Reg "*")) (RegexStar (Str2Reg "+"))) (RegexConcat (RegexUnion (RegexStar (Str2Reg "''")) (RegexUnion (Str2Reg "((") (Str2Reg "))"))) (RegexConcat (RegexPlus (RegexPlus (Str2Reg "&&"))) (RegexConcat (RegexPlus (RegexUnion (Str2Reg "$$$") (Str2Reg "%"))) (RegexConcat (RegexUnion (RegexPlus (Str2Reg "\"")) (RegexStar (Str2Reg "###"))) (RegexConcat (RegexPlus (RegexPlus (Str2Reg "!!!"))) (RegexConcat (RegexPlus (RegexStar (Str2Reg "ZZZ"))) (RegexConcat (RegexUnion (RegexUnion (Str2Reg "V") (Str2Reg "WW")) (RegexUnion (Str2Reg "X") (Str2Reg "YY"))) (RegexConcat (RegexPlus (RegexStar (Str2Reg "UU"))) (RegexConcat (RegexPlus (RegexPlus (Str2Reg "TTT"))) (RegexConcat (RegexStar (RegexStar (Str2Reg "SSS"))) (RegexConcat (RegexPlus (RegexUnion (Str2Reg "Q") (Str2Reg "RRR"))) (RegexConcat (RegexStar (RegexPlus (Str2Reg "P"))) (RegexConcat (RegexPlus (RegexStar (Str2Reg "O"))) (RegexConcat (RegexPlus (RegexStar (Str2Reg "NN"))) (RegexConcat (RegexPlus (RegexStar (Str2Reg "MM"))) (RegexConcat (RegexStar (RegexPlus (Str2Reg "LL"))) (RegexConcat (RegexUnion (RegexStar (Str2Reg "JJ")) (RegexStar (Str2Reg "K"))) (RegexConcat (RegexUnion (RegexStar (Str2Reg "G")) (RegexUnion (Str2Reg "HHH") (Str2Reg "II"))) (RegexConcat (RegexUnion (RegexPlus (Str2Reg "DD")) (RegexUnion (Str2Reg "EEE") (Str2Reg "FF"))) (RegexConcat (RegexUnion (RegexStar (Str2Reg "BB")) (RegexPlus (Str2Reg "C"))) (RegexConcat (RegexUnion (RegexPlus (Str2Reg "zz")) (RegexPlus (Str2Reg "A"))) (RegexConcat (RegexStar (RegexStar (Str2Reg "y"))) (RegexConcat (RegexUnion (RegexUnion (Str2Reg "vv") (Str2Reg "www")) (RegexStar (Str2Reg "xx"))) (RegexConcat (RegexStar (RegexPlus (Str2Reg "uuu"))) (RegexConcat (RegexPlus (RegexPlus (Str2Reg "t"))) (RegexConcat (RegexUnion (RegexPlus (Str2Reg "rrr")) (RegexStar (Str2Reg "ss"))) (RegexConcat (RegexPlus (RegexStar (Str2Reg "qq"))) (RegexConcat (RegexPlus (RegexStar (Str2Reg "ppp"))) (RegexConcat (RegexStar (RegexUnion (Str2Reg "nn") (Str2Reg "oo"))) (RegexConcat (RegexUnion (RegexPlus (Str2Reg "ll")) (RegexPlus (Str2Reg "mmm"))) (RegexConcat (RegexUnion (RegexUnion (Str2Reg "iii") (Str2Reg "jj")) (RegexPlus (Str2Reg "kkk"))) (RegexConcat (RegexStar (RegexPlus (Str2Reg "hh"))) (RegexConcat (RegexStar (RegexStar (Str2Reg "ggg"))) (RegexConcat (RegexPlus (RegexPlus (Str2Reg "fff"))) (RegexConcat (RegexPlus (RegexStar (Str2Reg "e"))) (RegexConcat (RegexStar (RegexPlus (Str2Reg "d"))) (RegexConcat (RegexPlus (RegexUnion (Str2Reg "bb") (Str2Reg "c"))) (RegexConcat (RegexPlus (RegexPlus (Str2Reg "aa"))) (RegexConcat (RegexStar (RegexStar (Str2Reg "99"))) (RegexConcat (RegexUnion (RegexPlus (Str2Reg "6")) (RegexUnion (Str2Reg "777") (Str2Reg "888"))) (RegexConcat (RegexUnion (RegexStar (Str2Reg "444")) (RegexStar (Str2Reg "55"))) (RegexConcat (RegexPlus (RegexUnion (Str2Reg "2") (Str2Reg "333"))) (RegexConcat (RegexPlus (RegexStar (Str2Reg "111"))) (RegexConcat (RegexPlus (RegexStar (Str2Reg "0"))) (RegexConcat (RegexUnion (RegexPlus (Str2Reg "|||")) (RegexUnion (Str2Reg "}") (Str2Reg "~"))) (RegexConcat (RegexStar (RegexUnion (Str2Reg "`") (Str2Reg "{{{"))) (RegexConcat (RegexStar (RegexPlus (Str2Reg "___"))) (RegexConcat (RegexPlus (RegexUnion (Str2Reg "]]") (Str2Reg "^^"))) (RegexConcat (RegexUnion (RegexUnion (Str2Reg "@@@") (Str2Reg "[")) (RegexPlus (Str2Reg "\\\\"))) (RegexConcat (RegexUnion (RegexPlus (Str2Reg ">")) (RegexPlus (Str2Reg "?"))) (RegexConcat (RegexStar (RegexStar (Str2Reg "="))) (RegexConcat (RegexStar (RegexStar (Str2Reg "<"))) (RegexConcat (RegexPlus (RegexUnion (Str2Reg ":::") (Str2Reg ";;;"))) (RegexConcat (RegexUnion (RegexUnion (Str2Reg ",") (Str2Reg "--")) (RegexUnion (Str2Reg "...") (Str2Reg "///"))) (RegexConcat (RegexUnion (RegexPlus (Str2Reg ")))")) (RegexUnion (Str2Reg "***") (Str2Reg "+++"))) (RegexConcat (RegexStar (RegexPlus (Str2Reg "("))) (RegexConcat (RegexStar (RegexStar (Str2Reg "'''"))) (RegexConcat (RegexStar (RegexStar (Str2Reg "&&&"))) (RegexConcat (RegexPlus (RegexStar (Str2Reg "%"))) (RegexConcat (RegexPlus (RegexStar (Str2Reg "$"))) (RegexConcat (RegexPlus (RegexStar (Str2Reg "#"))) (RegexConcat (RegexPlus (RegexPlus (Str2Reg "\""))) (RegexConcat (RegexUnion (RegexPlus (Str2Reg "ZZZ")) (RegexPlus (Str2Reg "!!"))) (RegexConcat (RegexUnion (RegexStar (Str2Reg "XX")) (RegexStar (Str2Reg "YY"))) (RegexConcat (RegexStar (RegexPlus (Str2Reg "W"))) (RegexConcat (RegexPlus (RegexUnion (Str2Reg "UUU") (Str2Reg "V"))) (RegexConcat (RegexStar (RegexPlus (Str2Reg "TTT"))) (RegexConcat (RegexUnion (RegexStar (Str2Reg "QQ")) (RegexUnion (Str2Reg "RRR") (Str2Reg "SS"))) (RegexConcat (RegexStar (RegexUnion (Str2Reg "OO") (Str2Reg "P"))) (RegexConcat (RegexUnion (RegexPlus (Str2Reg "L")) (RegexUnion (Str2Reg "M") (Str2Reg "NN"))) (RegexConcat (RegexUnion (RegexUnion (Str2Reg "II") (Str2Reg "JJJ")) (RegexPlus (Str2Reg "KKK"))) (RegexConcat (RegexPlus (RegexPlus (Str2Reg "H"))) (RegexConcat (RegexStar (RegexUnion (Str2Reg "FF") (Str2Reg "GGG"))) (RegexConcat (RegexStar (RegexUnion (Str2Reg "D") (Str2Reg "E"))) (RegexConcat (RegexStar (RegexUnion (Str2Reg "BB") (Str2Reg "C"))) (RegexConcat (RegexUnion (RegexPlus (Str2Reg "yyy")) (RegexUnion (Str2Reg "zz") (Str2Reg "AAA"))) (RegexConcat (RegexStar (RegexPlus (Str2Reg "x"))) (RegexConcat (RegexStar (RegexPlus (Str2Reg "w"))) (RegexConcat (RegexStar (RegexStar (Str2Reg "v"))) (RegexConcat (RegexStar (RegexStar (Str2Reg "uu"))) (RegexConcat (RegexUnion (RegexStar (Str2Reg "rrr")) (RegexUnion (Str2Reg "s") (Str2Reg "tt"))) (RegexConcat (RegexPlus (RegexUnion (Str2Reg "p") (Str2Reg "qq"))) (RegexConcat (RegexUnion (RegexPlus (Str2Reg "nn")) (RegexPlus (Str2Reg "oo"))) (RegexConcat (RegexUnion (RegexUnion (Str2Reg "jjj") (Str2Reg "kk")) (RegexUnion (Str2Reg "ll") (Str2Reg "m"))) (RegexConcat (RegexUnion (RegexStar (Str2Reg "h")) (RegexStar (Str2Reg "i"))) (RegexConcat (RegexPlus (RegexPlus (Str2Reg "gg"))) (RegexConcat (RegexUnion (RegexUnion (Str2Reg "ccc") (Str2Reg "ddd")) (RegexUnion (Str2Reg "ee") (Str2Reg "ff"))) (RegexConcat (RegexStar (RegexStar (Str2Reg "bb"))) (RegexConcat (RegexPlus (RegexPlus (Str2Reg "aa"))) (RegexConcat (RegexStar (RegexStar (Str2Reg "99"))) (RegexConcat (RegexUnion (RegexUnion (Str2Reg "6") (Str2Reg "7")) (RegexStar (Str2Reg "88"))) (RegexConcat (RegexStar (RegexUnion (Str2Reg "4") (Str2Reg "55"))) (RegexConcat (RegexStar (RegexStar (Str2Reg "3"))) (RegexConcat (RegexPlus (RegexPlus (Str2Reg "22"))) (RegexConcat (RegexPlus (RegexStar (Str2Reg "111"))) (RegexConcat (RegexPlus (RegexUnion (Str2Reg "~~") (Str2Reg "0"))) (RegexConcat (RegexUnion (RegexStar (Str2Reg "|")) (RegexPlus (Str2Reg "}}"))) (RegexConcat (RegexStar (RegexUnion (Str2Reg "``") (Str2Reg "{"))) (RegexConcat (RegexPlus (RegexPlus (Str2Reg "___"))) (RegexConcat (RegexUnion (RegexPlus (Str2Reg "]]]")) (RegexStar (Str2Reg "^^"))) (RegexConcat (RegexPlus (RegexStar (Str2Reg "\\\\"))) (RegexConcat (RegexStar (RegexStar (Str2Reg "[[["))) (RegexConcat (RegexUnion (RegexPlus (Str2Reg "?")) (RegexPlus (Str2Reg "@"))) (RegexConcat (RegexPlus (RegexStar (Str2Reg ">>>"))) (RegexConcat (RegexStar (RegexUnion (Str2Reg "<<") (Str2Reg "=="))) (RegexConcat (RegexUnion (RegexPlus (Str2Reg "//")) (RegexUnion (Str2Reg ":::") (Str2Reg ";;;"))) (RegexConcat (RegexUnion (RegexPlus (Str2Reg ",,,")) (RegexUnion (Str2Reg "---") (Str2Reg "."))) (RegexConcat (RegexUnion (RegexUnion (Str2Reg "((") (Str2Reg ")")) (RegexUnion (Str2Reg "***") (Str2Reg "++"))) (RegexConcat (RegexPlus (RegexUnion (Str2Reg "&&") (Str2Reg "''"))) (RegexConcat (RegexStar (RegexUnion (Str2Reg "$") (Str2Reg "%%"))) (RegexConcat (RegexUnion (RegexUnion (Str2Reg "ZZZ") (Str2Reg "!!")) (RegexUnion (Str2Reg "\"\"\"") (Str2Reg "##"))) (RegexConcat (RegexUnion (RegexStar (Str2Reg "X")) (RegexStar (Str2Reg "Y"))) (RegexConcat (RegexUnion (RegexUnion (Str2Reg "T") (Str2Reg "UUU")) (RegexUnion (Str2Reg "VVV") (Str2Reg "WW"))) (RegexConcat (RegexUnion (RegexStar (Str2Reg "R")) (RegexPlus (Str2Reg "SS"))) (RegexConcat (RegexPlus (RegexStar (Str2Reg "QQ"))) (RegexConcat (RegexPlus (RegexPlus (Str2Reg "P"))) (RegexConcat (RegexUnion (RegexPlus (Str2Reg "NN")) (RegexPlus (Str2Reg "OOO"))) (RegexConcat (RegexStar (RegexUnion (Str2Reg "LLL") (Str2Reg "MMM"))) (RegexConcat (RegexStar (RegexPlus (Str2Reg "KKK"))) (RegexConcat (RegexPlus (RegexStar (Str2Reg "JJJ"))) (RegexConcat (RegexStar (RegexUnion (Str2Reg "HHH") (Str2Reg "II"))) (RegexConcat (RegexUnion (RegexPlus (Str2Reg "FF")) (RegexStar (Str2Reg "GGG"))) (RegexConcat (RegexUnion (RegexPlus (Str2Reg "DDD")) (RegexStar (Str2Reg "EE"))) (RegexConcat (RegexUnion (RegexUnion (Str2Reg "z") (Str2Reg "AA")) (RegexUnion (Str2Reg "BB") (Str2Reg "C"))) (RegexConcat (RegexPlus (RegexUnion (Str2Reg "x") (Str2Reg "y"))) (RegexConcat (RegexUnion (RegexStar (Str2Reg "u")) (RegexUnion (Str2Reg "vv") (Str2Reg "w"))) (RegexConcat (RegexUnion (RegexPlus (Str2Reg "rr")) (RegexUnion (Str2Reg "ss") (Str2Reg "tt"))) (RegexConcat (RegexStar (RegexPlus (Str2Reg "qqq"))) (RegexConcat (RegexPlus (RegexStar (Str2Reg "ppp"))) (RegexConcat (RegexUnion (RegexUnion (Str2Reg "l") (Str2Reg "mmm")) (RegexUnion (Str2Reg "nn") (Str2Reg "ooo"))) (RegexConcat (RegexStar (RegexUnion (Str2Reg "jjj") (Str2Reg "kk"))) (RegexConcat (RegexStar (RegexStar (Str2Reg "ii"))) (RegexConcat (RegexUnion (RegexStar (Str2Reg "fff")) (RegexUnion (Str2Reg "gg") (Str2Reg "hh"))) (RegexConcat (RegexUnion (RegexStar (Str2Reg "d")) (RegexStar (Str2Reg "ee"))) (RegexConcat (RegexPlus (RegexStar (Str2Reg "cc"))) (RegexConcat (RegexPlus (RegexPlus (Str2Reg "b"))) (RegexConcat (RegexPlus (RegexStar (Str2Reg "aaa"))) (RegexConcat (RegexUnion (RegexUnion (Str2Reg "6") (Str2Reg "777")) (RegexUnion (Str2Reg "88") (Str2Reg "99"))) (RegexConcat (RegexPlus (RegexPlus (Str2Reg "5"))) (RegexConcat (RegexUnion (RegexPlus (Str2Reg "333")) (RegexPlus (Str2Reg "444"))) (RegexUnion (RegexUnion (Str2Reg "000") (Str2Reg "1")) (RegexStar (Str2Reg "222")))))))))))))))))))))))))))))))))))))))))))))))))))))))))))))))))))))))))))))))))))))))))))))))))))))))))))))))))))))))))))))))))))))))))))))))))))))))))))))))
(check-sat)